p cnf 11 26
c 2 f
c 3 e
c 4 d
c 5 c
c 6 a
c 7 b
2 3 0
-2 -3 0
3 2 0
-3 -2 0
8 -2 0
-8 2 0
9 -3 0
-9 3 0
6 7 0
-6 -7 0
7 6 0
-7 -6 0
10 -6 -4 0
-10 6 0
-10 4 0
11 -6 -5 0
-11 6 0
-11 5 0
-1 0
-1 0
-4 8 11 0
4 -8 0
4 -11 0
-5 9 10 0
5 -9 0
5 -10 0
